p cnf 46 187
1 0
3 0
5 0
-2 0
-4 0
-6 0
-3 -4 0
3 4 0
-5 -6 0
5 6 0
-1 -2 0
-1 -6 0
-2 -6 0
1 2 6 0
-9 -10 0
9 10 0
-11 -12 0
11 12 0
-7 -8 0
-7 -12 0
-8 -12 0
7 8 12 0
-15 -16 0
15 16 0
-17 -18 0
17 18 0
-13 -14 0
-13 -18 0
-14 -18 0
13 14 18 0
-21 -22 0
21 22 0
-23 -24 0
23 24 0
-19 -20 0
-19 -24 0
-20 -24 0
19 20 24 0
-27 -28 0
27 28 0
-29 -30 0
29 30 0
-25 -26 0
-25 -30 0
-26 -30 0
25 26 30 0
-31 3 0
-31 1 0
-31 5 0
-31 12 0
-31 -7 0
-31 -11 0
-32 4 0
-32 6 0
-32 8 0
-32 11 0
-32 -12 0
-33 3 0
-33 10 0
-33 -9 0
-34 4 0
-34 9 0
-34 -10 0
-1 31 7 0
1 -31 -7 0
-2 8 0
2 32 -8 0
-6 32 12 0
6 31 -12 0
-5 31 11 0
5 32 -11 0
-3 33 9 0
3 34 -9 0
-4 34 10 0
4 33 -10 0
-31 -32 0
-31 -33 0
-31 -34 0
-32 -33 0
-32 -34 0
-33 -34 0
-35 9 0
-35 7 0
-35 11 0
-35 18 0
-35 -13 0
-35 -17 0
-36 10 0
-36 12 0
-36 14 0
-36 17 0
-36 -18 0
-37 9 0
-37 16 0
-37 -15 0
-38 10 0
-38 15 0
-38 -16 0
-7 35 13 0
7 -35 -13 0
-8 14 0
8 36 -14 0
-12 36 18 0
12 35 -18 0
-11 35 17 0
11 36 -17 0
-9 37 15 0
9 38 -15 0
-10 38 16 0
10 37 -16 0
-35 -36 0
-35 -37 0
-35 -38 0
-36 -37 0
-36 -38 0
-37 -38 0
-39 15 0
-39 13 0
-39 17 0
-39 24 0
-39 -19 0
-39 -23 0
-40 16 0
-40 18 0
-40 20 0
-40 23 0
-40 -24 0
-41 15 0
-41 22 0
-41 -21 0
-42 16 0
-42 21 0
-42 -22 0
-13 39 19 0
13 -39 -19 0
-14 20 0
14 40 -20 0
-18 40 24 0
18 39 -24 0
-17 39 23 0
17 40 -23 0
-15 41 21 0
15 42 -21 0
-16 42 22 0
16 41 -22 0
-39 -40 0
-39 -41 0
-39 -42 0
-40 -41 0
-40 -42 0
-41 -42 0
-43 21 0
-43 19 0
-43 23 0
-43 30 0
-43 -25 0
-43 -29 0
-44 22 0
-44 24 0
-44 26 0
-44 29 0
-44 -30 0
-45 21 0
-45 28 0
-45 -27 0
-46 22 0
-46 27 0
-46 -28 0
-19 43 25 0
19 -43 -25 0
-20 26 0
20 44 -26 0
-24 44 30 0
24 43 -30 0
-23 43 29 0
23 44 -29 0
-21 45 27 0
21 46 -27 0
-22 46 28 0
22 45 -28 0
-43 -44 0
-43 -45 0
-43 -46 0
-44 -45 0
-44 -46 0
-45 -46 0
26 0
